NAME : R105.13553.tour
COMMENT : Cost = 0_13553
COMMENT : Found by LKH [Keld Helsgaun] Wed Sep 13 18:46:02 2017
TYPE : TOUR
DIMENSION : 115
TOUR_SECTION
1
29
13
30
80
79
35
36
78
104
22
74
76
23
42
57
75
59
107
3
16
58
88
98
14
103
60
96
93
99
17
62
86
38
97
108
43
15
45
39
87
44
101
92
94
106
48
37
20
50
47
49
111
54
41
27
114
63
89
8
19
102
34
66
72
67
21
33
71
113
73
40
24
68
56
55
5
26
110
64
65
12
91
11
105
53
83
9
85
18
61
90
109
32
31
52
10
82
4
69
25
81
115
28
70
77
51
2
112
6
46
84
100
95
7
-1
EOF
